(set-logic  QF_LRA)
(declare-const max Real)
(declare-const fee Real)
(declare-const w Real)
(assert (= fee (ite (<= w 1) 4.25 (ite (<= w 2) 4.96 (ite (<= w 3) 5.67 (ite (<= w 4) 6.38 (ite (<= w 5) 7.10 (ite (<= w 6) 7.81 (ite (<= w 7) 8.52 (ite (<= w 8) 9.23 (ite (<= w 9) 9.95 (ite (<= w 10) 10.66 (ite (<= w 11) 11.37 (ite (<= w 12) 12.08 (ite (<= w 13) 12.80 (ite (<= w 14) 13.51 (ite (<= w 15) 14.22 (ite (<= w 16) 14.93 (ite (<= w 17) 15.65 (ite (<= w 18) 16.36 (ite (<= w 19) 17.07 (ite (<= w 20) 17.78 (ite (<= w 21) 18.50 (ite (<= w 22) 19.21 (ite (<= w 23) 19.92 (ite (<= w 24) 20.63 (ite (<= w 25) 21.35 (ite (<= w 26) 22.06 (ite (<= w 27) 22.77 (ite (<= w 28) 23.48 (ite (<= w 29) 24.20 (ite (<= w 30) 24.91 (ite (<= w 31) 25.62 (ite (<= w 32) 26.33 (ite (<= w 33) 27.05 (ite (<= w 34) 27.76 (ite (<= w 35) 28.47 (ite (<= w 36) 29.18 (ite (<= w 37) 29.90 (ite (<= w 38) 30.61 (ite (<= w 39) 31.32 (ite (<= w 40) 32.03 (ite (<= w 41) 32.75 (ite (<= w 42) 33.46 (ite (<= w 43) 34.17 (ite (<= w 44) 34.88 (ite (<= w 45) 35.60 (ite (<= w 46) 36.31 (ite (<= w 47) 37.02 (ite (<= w 48) 37.73 (ite (<= w 49) 38.45 (ite (<= w 50) 39.16 (ite (<= w 51) 39.87 (ite (<= w 52) 40.58 (ite (<= w 53) 41.30 (ite (<= w 54) 42.01 (ite (<= w 55) 42.72 (ite (<= w 56) 43.43 (ite (<= w 57) 44.15 (ite (<= w 58) 44.86 (ite (<= w 59) 45.57 (ite (<= w 60) 46.28 (ite (<= w 61) 47.00 (ite (<= w 62) 47.71 (ite (<= w 63) 48.42 (ite (<= w 64) 49.13 (ite (<= w 65) 49.85 (ite (<= w 66) 50.56 (ite (<= w 67) 51.27 (ite (<= w 68) 51.98 (ite (<= w 69) 52.70 (ite (<= w 70) 53.41 max))))))))))))))))))))))))))))))))))))))))))))))))))))))))))))))))))))))))